p cnf 7230 18
6505 -6604 0
6607 -6608 0
-4658 -6213 -6503 6602 0
-5158 -6213 -6505 6603 0
-5471 -6107 -6505 6605 0
6505 -6606 0
6107 -6606 0
5471 -6606 0
5158 -6604 0
-6603 6604 0
-6605 6606 0
6213 -6604 0
-5709 -6107 -6503 6608 0
6601 -6602 0
-6601 6602 0
6503 -6608 0
5709 -6608 0
6107 -6608 0
